(set-info :smt-lib-version 2.6)
(set-info :category "crafted")
(set-logic QF_FFA)
(define-sort FF0 () (_ FiniteField 52435875175126190479447740508185965837690552500527637822603658699938581184513))
(declare-fun return_n1_alt () FF0)
(declare-fun mul_n32_alt () FF0)
(declare-fun mul_n59_alt () FF0)
(declare-fun mul_n35_alt () FF0)
(declare-fun mul_n58_alt () FF0)
(declare-fun mul_n51_alt () FF0)
(declare-fun mul_n57_alt () FF0)
(declare-fun mul_n55_alt () FF0)
(declare-fun mul_n24_alt () FF0)
(declare-fun mul_n56_alt () FF0)
(declare-fun h_n9_alt () FF0)
(declare-fun mul_n39_alt () FF0)
(declare-fun mul_n40_alt () FF0)
(declare-fun mul_n54_alt () FF0)
(declare-fun mul_n28_alt () FF0)
(declare-fun mul_n53_alt () FF0)
(declare-fun mul_n52_alt () FF0)
(declare-fun mul_n31_alt () FF0)
(declare-fun k_n3_alt () FF0)
(declare-fun f_n2_alt () FF0)
(declare-fun mul_n25_alt () FF0)
(declare-fun a_n12_alt () FF0)
(declare-fun mul_n50_alt () FF0)
(declare-fun i_n7_alt () FF0)
(declare-fun mul_n41_alt () FF0)
(declare-fun mul_n49_alt () FF0)
(declare-fun mul_n19_alt () FF0)
(declare-fun mul_n18_alt () FF0)
(declare-fun mul_n42_alt () FF0)
(declare-fun j_n5_alt () FF0)
(declare-fun mul_n48_alt () FF0)
(declare-fun mul_n47_alt () FF0)
(declare-fun mul_n43_alt () FF0)
(declare-fun b_n10_alt () FF0)
(declare-fun mul_n46_alt () FF0)
(declare-fun d_n6_alt () FF0)
(declare-fun mul_n44_alt () FF0)
(declare-fun mul_n21_alt () FF0)
(declare-fun mul_n30_alt () FF0)
(declare-fun e_n4_alt () FF0)
(declare-fun mul_n29_alt () FF0)
(declare-fun mul_n45_alt () FF0)
(declare-fun mul_n20_alt () FF0)
(declare-fun g_n11_alt () FF0)
(declare-fun c_n8_alt () FF0)
(declare-fun mul_n38_alt () FF0)
(declare-fun mul_n37_alt () FF0)
(declare-fun mul_n26_alt () FF0)
(declare-fun mul_n36_alt () FF0)
(declare-fun mul_n34_alt () FF0)
(declare-fun mul_n33_alt () FF0)
(declare-fun mul_n17_alt () FF0)
(declare-fun mul_n27_alt () FF0)
(declare-fun mul_n23_alt () FF0)
(declare-fun mul_n22_alt () FF0)
(declare-fun l_n0_alt () FF0)
(declare-fun mul_n16_alt () FF0)
(declare-fun mul_n15_alt () FF0)
(declare-fun mul_n14_alt () FF0)
(declare-fun mul_n13_alt () FF0)
(declare-fun return_n1 () FF0)
(declare-fun mul_n32 () FF0)
(declare-fun mul_n59 () FF0)
(declare-fun mul_n35 () FF0)
(declare-fun mul_n58 () FF0)
(declare-fun mul_n51 () FF0)
(declare-fun mul_n57 () FF0)
(declare-fun mul_n55 () FF0)
(declare-fun mul_n24 () FF0)
(declare-fun mul_n56 () FF0)
(declare-fun h_n9 () FF0)
(declare-fun mul_n39 () FF0)
(declare-fun mul_n40 () FF0)
(declare-fun mul_n54 () FF0)
(declare-fun mul_n28 () FF0)
(declare-fun mul_n53 () FF0)
(declare-fun mul_n52 () FF0)
(declare-fun mul_n31 () FF0)
(declare-fun k_n3 () FF0)
(declare-fun f_n2 () FF0)
(declare-fun mul_n25 () FF0)
(declare-fun a_n12 () FF0)
(declare-fun mul_n50 () FF0)
(declare-fun i_n7 () FF0)
(declare-fun mul_n41 () FF0)
(declare-fun mul_n49 () FF0)
(declare-fun mul_n19 () FF0)
(declare-fun mul_n18 () FF0)
(declare-fun mul_n42 () FF0)
(declare-fun j_n5 () FF0)
(declare-fun mul_n48 () FF0)
(declare-fun mul_n47 () FF0)
(declare-fun mul_n43 () FF0)
(declare-fun b_n10 () FF0)
(declare-fun mul_n46 () FF0)
(declare-fun d_n6 () FF0)
(declare-fun mul_n44 () FF0)
(declare-fun mul_n21 () FF0)
(declare-fun mul_n30 () FF0)
(declare-fun e_n4 () FF0)
(declare-fun mul_n29 () FF0)
(declare-fun mul_n45 () FF0)
(declare-fun mul_n20 () FF0)
(declare-fun g_n11 () FF0)
(declare-fun c_n8 () FF0)
(declare-fun mul_n38 () FF0)
(declare-fun mul_n37 () FF0)
(declare-fun mul_n26 () FF0)
(declare-fun mul_n36 () FF0)
(declare-fun mul_n34 () FF0)
(declare-fun mul_n33 () FF0)
(declare-fun mul_n17 () FF0)
(declare-fun mul_n27 () FF0)
(declare-fun mul_n23 () FF0)
(declare-fun mul_n22 () FF0)
(declare-fun l_n0 () FF0)
(declare-fun mul_n16 () FF0)
(declare-fun mul_n15 () FF0)
(declare-fun mul_n14 () FF0)
(declare-fun mul_n13 () FF0)
(assert 
  (let ((let0 (as ff1 FF0)))
  (let ((let1 (as ff52435875175126190479447740508185965837690552500527637822603658699938581184512 FF0)))
  (let ((let2 return_n1_alt))
  (let ((let3 (ff.mul let2 let1)))
  (let ((let4 (ff.add let3 let0)))
  (let ((let5 mul_n32_alt))
  (let ((let6 mul_n59_alt))
  (let ((let7 (ff.mul let6 let5)))
  (let ((let8 (= let7 let4)))
  (let ((let9 mul_n35_alt))
  (let ((let10 mul_n58_alt))
  (let ((let11 (ff.mul let10 let9)))
  (let ((let12 (= let11 let6)))
  (let ((let13 mul_n51_alt))
  (let ((let14 (ff.mul let13 let1)))
  (let ((let15 (ff.add let14 let0)))
  (let ((let16 mul_n57_alt))
  (let ((let17 (ff.mul let16 let15)))
  (let ((let18 (= let17 let10)))
  (let ((let19 mul_n55_alt))
  (let ((let20 (ff.mul let19 let1)))
  (let ((let21 (ff.add let20 let0)))
  (let ((let22 mul_n24_alt))
  (let ((let23 mul_n56_alt))
  (let ((let24 (ff.mul let23 let1)))
  (let ((let25 (ff.add let24 let22)))
  (let ((let26 (ff.mul let25 let21)))
  (let ((let27 (= let26 let16)))
  (let ((let28 h_n9_alt))
  (let ((let29 (ff.mul let28 let1)))
  (let ((let30 (ff.add let22 let29)))
  (let ((let31 mul_n39_alt))
  (let ((let32 (ff.mul let31 let30)))
  (let ((let33 (= let32 let23)))
  (let ((let34 mul_n40_alt))
  (let ((let35 (ff.mul let34 let1)))
  (let ((let36 (ff.add let35 let0)))
  (let ((let37 mul_n54_alt))
  (let ((let38 (ff.mul let37 let36)))
  (let ((let39 (= let38 let19)))
  (let ((let40 mul_n28_alt))
  (let ((let41 (ff.mul let40 let1)))
  (let ((let42 (ff.add let41 let0)))
  (let ((let43 mul_n53_alt))
  (let ((let44 (ff.mul let43 let42)))
  (let ((let45 (= let44 let37)))
  (let ((let46 mul_n52_alt))
  (let ((let47 (ff.mul let46 let28)))
  (let ((let48 (= let47 let43)))
  (let ((let49 mul_n31_alt))
  (let ((let50 k_n3_alt))
  (let ((let51 (ff.mul let50 let49)))
  (let ((let52 (= let51 let46)))
  (let ((let53 f_n2_alt))
  (let ((let54 (ff.mul let53 let1)))
  (let ((let55 mul_n25_alt))
  (let ((let56 a_n12_alt))
  (let ((let57 (ff.mul let56 let1)))
  (let ((let58 (ff.add let57 let55 let54 let0)))
  (let ((let59 mul_n50_alt))
  (let ((let60 (ff.mul let59 let58)))
  (let ((let61 (= let60 let13)))
  (let ((let62 i_n7_alt))
  (let ((let63 mul_n41_alt))
  (let ((let64 (ff.add let34 let63 let62 let1)))
  (let ((let65 mul_n49_alt))
  (let ((let66 (ff.mul let65 let64)))
  (let ((let67 (= let66 let59)))
  (let ((let68 mul_n19_alt))
  (let ((let69 (ff.mul let68 let1)))
  (let ((let70 (ff.mul let63 let1)))
  (let ((let71 mul_n18_alt))
  (let ((let72 mul_n42_alt))
  (let ((let73 j_n5_alt))
  (let ((let74 (ff.add let35 let73 let72 let71 let70 let69 let0)))
  (let ((let75 mul_n48_alt))
  (let ((let76 (ff.mul let75 let74)))
  (let ((let77 (= let76 let65)))
  (let ((let78 (ff.add let73 let71 let62 let69)))
  (let ((let79 mul_n47_alt))
  (let ((let80 (ff.mul let79 let78)))
  (let ((let81 (= let80 let75)))
  (let ((let82 mul_n43_alt))
  (let ((let83 b_n10_alt))
  (let ((let84 (ff.add let28 let83 let82 let1)))
  (let ((let85 mul_n46_alt))
  (let ((let86 (ff.mul let85 let84)))
  (let ((let87 (= let86 let79)))
  (let ((let88 d_n6_alt))
  (let ((let89 mul_n44_alt))
  (let ((let90 mul_n21_alt))
  (let ((let91 (ff.mul let90 let1)))
  (let ((let92 mul_n30_alt))
  (let ((let93 e_n4_alt))
  (let ((let94 mul_n29_alt))
  (let ((let95 (ff.mul let94 let1)))
  (let ((let96 (ff.add let95 let93 let92 let91 let89 let41 let88 let56)))
  (let ((let97 mul_n45_alt))
  (let ((let98 (ff.mul let97 let96)))
  (let ((let99 (= let98 let85)))
  (let ((let100 (ff.mul let22 let1)))
  (let ((let101 (ff.add let100 let0)))
  (let ((let102 mul_n20_alt))
  (let ((let103 (ff.mul let102 let101)))
  (let ((let104 (= let103 let97)))
  (let ((let105 (ff.mul let88 let1)))
  (let ((let106 (as ff52435875175126190479447740508185965837690552500527637822603658699938581184511 FF0)))
  (let ((let107 (ff.mul let56 let106)))
  (let ((let108 (ff.mul let92 let1)))
  (let ((let109 (ff.mul let93 let1)))
  (let ((let110 (ff.add let94 let109 let108 let90 let54 let107 let55 let105 let40 let0)))
  (let ((let111 g_n11_alt))
  (let ((let112 (ff.mul let111 let110)))
  (let ((let113 (= let112 let89)))
  (let ((let114 (ff.mul let83 let1)))
  (let ((let115 (ff.add let114 let0)))
  (let ((let116 (as ff2 FF0)))
  (let ((let117 (ff.mul let28 let106)))
  (let ((let118 (ff.add let117 let116)))
  (let ((let119 (ff.mul let118 let115)))
  (let ((let120 (= let119 let82)))
  (let ((let121 (ff.mul let68 let116)))
  (let ((let122 (ff.mul let62 let106)))
  (let ((let123 (ff.mul let71 let106)))
  (let ((let124 (ff.mul let73 let106)))
  (let ((let125 (ff.add let124 let123 let122 let121 let116)))
  (let ((let126 (ff.mul let125 let64)))
  (let ((let127 (= let126 let72)))
  (let ((let128 (ff.add let122 let116)))
  (let ((let129 (ff.mul let128 let36)))
  (let ((let130 (= let129 let63)))
  (let ((let131 (ff.add let93 let91 let88)))
  (let ((let132 (ff.mul let131 let31)))
  (let ((let133 (= let132 let34)))
  (let ((let134 c_n8_alt))
  (let ((let135 (ff.mul let134 let1)))
  (let ((let136 (ff.add let135 let0)))
  (let ((let137 mul_n38_alt))
  (let ((let138 (ff.mul let137 let136)))
  (let ((let139 (= let138 let31)))
  (let ((let140 mul_n37_alt))
  (let ((let141 (ff.mul let140 let28)))
  (let ((let142 (= let141 let137)))
  (let ((let143 mul_n26_alt))
  (let ((let144 (ff.mul let143 let1)))
  (let ((let145 (ff.add let144 let83 let57 let55 let54 let0)))
  (let ((let146 mul_n36_alt))
  (let ((let147 (ff.mul let146 let145)))
  (let ((let148 (= let147 let140)))
  (let ((let149 (ff.mul let50 let1)))
  (let ((let150 (ff.add let149 let0)))
  (let ((let151 mul_n34_alt))
  (let ((let152 (ff.mul let151 let150)))
  (let ((let153 (= let152 let9)))
  (let ((let154 (ff.add let54 let0)))
  (let ((let155 mul_n33_alt))
  (let ((let156 (ff.mul let155 let154)))
  (let ((let157 (= let156 let151)))
  (let ((let158 (ff.mul let102 let1)))
  (let ((let159 (ff.add let158 let0)))
  (let ((let160 (ff.add let57 let0)))
  (let ((let161 (ff.mul let160 let159)))
  (let ((let162 (= let161 let155)))
  (let ((let163 (ff.mul let49 let102)))
  (let ((let164 (= let163 let5)))
  (let ((let165 (ff.add let88 let95 let91 let41 let56 let92 let93)))
  (let ((let166 mul_n17_alt))
  (let ((let167 (ff.mul let166 let1)))
  (let ((let168 (ff.add let167 let0)))
  (let ((let169 (ff.mul let168 let165)))
  (let ((let170 (= let169 let49)))
  (let ((let171 (ff.add let109 let90 let105 let0)))
  (let ((let172 (ff.mul let94 let116)))
  (let ((let173 (ff.mul let40 let116)))
  (let ((let174 (ff.add let173 let172 let107)))
  (let ((let175 (ff.mul let174 let171)))
  (let ((let176 (= let175 let92)))
  (let ((let177 (ff.mul let40 let106)))
  (let ((let178 (ff.add let177 let116)))
  (let ((let179 (ff.mul let178 let56)))
  (let ((let180 (= let179 let94)))
  (let ((let181 mul_n27_alt))
  (let ((let182 (ff.mul let181 let22)))
  (let ((let183 (= let182 let40)))
  (let ((let184 (ff.mul let145 let28)))
  (let ((let185 (= let184 let181)))
  (let ((let186 (ff.mul let83 let116)))
  (let ((let187 (ff.mul let186 let58)))
  (let ((let188 (= let187 let143)))
  (let ((let189 (ff.mul let56 let116)))
  (let ((let190 (ff.mul let189 let53)))
  (let ((let191 (= let190 let55)))
  (let ((let192 (ff.add let105 let0)))
  (let ((let193 mul_n23_alt))
  (let ((let194 (ff.mul let193 let192)))
  (let ((let195 (= let194 let22)))
  (let ((let196 mul_n22_alt))
  (let ((let197 (ff.mul let196 let171)))
  (let ((let198 (= let197 let193)))
  (let ((let199 (ff.mul let111 let1)))
  (let ((let200 (ff.add let199 let0)))
  (let ((let201 (ff.mul let150 let200)))
  (let ((let202 (= let201 let196)))
  (let ((let203 (ff.mul let93 let116)))
  (let ((let204 (ff.mul let203 let88)))
  (let ((let205 (= let204 let90)))
  (let ((let206 (ff.mul let78 let115)))
  (let ((let207 (= let206 let102)))
  (let ((let208 (ff.mul let71 let116)))
  (let ((let209 (ff.mul let73 let116)))
  (let ((let210 (ff.add let209 let208)))
  (let ((let211 (ff.mul let210 let62)))
  (let ((let212 (= let211 let68)))
  (let ((let213 (ff.mul let73 let1)))
  (let ((let214 l_n0_alt))
  (let ((let215 (ff.add let214 let213)))
  (let ((let216 (ff.mul let168 let215)))
  (let ((let217 (= let216 let71)))
  (let ((let218 mul_n16_alt))
  (let ((let219 (ff.mul let218 let200)))
  (let ((let220 (= let219 let166)))
  (let ((let221 mul_n15_alt))
  (let ((let222 (ff.mul let221 let136)))
  (let ((let223 (= let222 let218)))
  (let ((let224 (ff.mul let214 let1)))
  (let ((let225 (ff.add let224 let0)))
  (let ((let226 mul_n14_alt))
  (let ((let227 (ff.mul let226 let225)))
  (let ((let228 (= let227 let221)))
  (let ((let229 (ff.add let109 let0)))
  (let ((let230 mul_n13_alt))
  (let ((let231 (ff.mul let230 let229)))
  (let ((let232 (= let231 let226)))
  (let ((let233 (ff.mul let62 let1)))
  (let ((let234 (ff.add let233 let0)))
  (let ((let235 (ff.add let213 let0)))
  (let ((let236 (ff.mul let235 let234)))
  (let ((let237 (= let236 let230)))
  (let ((let238 (and let237 let232 let228 let223 let220 let217 let212 let207 let205 let202 let198 let195 let191 let188 let185 let183 let180 let176 let170 let164 let162 let157 let153 let148 let142 let139 let133 let130 let127 let120 let113 let104 let99 let87 let81 let77 let67 let61 let52 let48 let45 let39 let33 let27 let18 let12 let8)))
  (let ((let239 return_n1))
  (let ((let240 (ff.mul let239 let1)))
  (let ((let241 (ff.add let240 let0)))
  (let ((let242 mul_n32))
  (let ((let243 mul_n59))
  (let ((let244 (ff.mul let243 let242)))
  (let ((let245 (= let244 let241)))
  (let ((let246 mul_n35))
  (let ((let247 mul_n58))
  (let ((let248 (ff.mul let247 let246)))
  (let ((let249 (= let248 let243)))
  (let ((let250 mul_n51))
  (let ((let251 (ff.mul let250 let1)))
  (let ((let252 (ff.add let251 let0)))
  (let ((let253 mul_n57))
  (let ((let254 (ff.mul let253 let252)))
  (let ((let255 (= let254 let247)))
  (let ((let256 mul_n55))
  (let ((let257 (ff.mul let256 let1)))
  (let ((let258 (ff.add let257 let0)))
  (let ((let259 mul_n24))
  (let ((let260 mul_n56))
  (let ((let261 (ff.mul let260 let1)))
  (let ((let262 (ff.add let261 let259)))
  (let ((let263 (ff.mul let262 let258)))
  (let ((let264 (= let263 let253)))
  (let ((let265 h_n9))
  (let ((let266 (ff.mul let265 let1)))
  (let ((let267 (ff.add let259 let266)))
  (let ((let268 mul_n39))
  (let ((let269 (ff.mul let268 let267)))
  (let ((let270 (= let269 let260)))
  (let ((let271 mul_n40))
  (let ((let272 (ff.mul let271 let1)))
  (let ((let273 (ff.add let272 let0)))
  (let ((let274 mul_n54))
  (let ((let275 (ff.mul let274 let273)))
  (let ((let276 (= let275 let256)))
  (let ((let277 mul_n28))
  (let ((let278 (ff.mul let277 let1)))
  (let ((let279 (ff.add let278 let0)))
  (let ((let280 mul_n53))
  (let ((let281 (ff.mul let280 let279)))
  (let ((let282 (= let281 let274)))
  (let ((let283 mul_n52))
  (let ((let284 (ff.mul let283 let265)))
  (let ((let285 (= let284 let280)))
  (let ((let286 mul_n31))
  (let ((let287 k_n3))
  (let ((let288 (ff.mul let287 let286)))
  (let ((let289 (= let288 let283)))
  (let ((let290 f_n2))
  (let ((let291 (ff.mul let290 let1)))
  (let ((let292 mul_n25))
  (let ((let293 a_n12))
  (let ((let294 (ff.mul let293 let1)))
  (let ((let295 (ff.add let294 let292 let291 let0)))
  (let ((let296 mul_n50))
  (let ((let297 (ff.mul let296 let295)))
  (let ((let298 (= let297 let250)))
  (let ((let299 i_n7))
  (let ((let300 mul_n41))
  (let ((let301 (ff.add let271 let300 let299 let1)))
  (let ((let302 mul_n49))
  (let ((let303 (ff.mul let302 let301)))
  (let ((let304 (= let303 let296)))
  (let ((let305 mul_n19))
  (let ((let306 (ff.mul let305 let1)))
  (let ((let307 (ff.mul let300 let1)))
  (let ((let308 mul_n18))
  (let ((let309 mul_n42))
  (let ((let310 j_n5))
  (let ((let311 (ff.add let272 let310 let309 let308 let307 let306 let0)))
  (let ((let312 mul_n48))
  (let ((let313 (ff.mul let312 let311)))
  (let ((let314 (= let313 let302)))
  (let ((let315 (ff.add let310 let308 let299 let306)))
  (let ((let316 mul_n47))
  (let ((let317 (ff.mul let316 let315)))
  (let ((let318 (= let317 let312)))
  (let ((let319 mul_n43))
  (let ((let320 b_n10))
  (let ((let321 (ff.add let265 let320 let319 let1)))
  (let ((let322 mul_n46))
  (let ((let323 (ff.mul let322 let321)))
  (let ((let324 (= let323 let316)))
  (let ((let325 d_n6))
  (let ((let326 mul_n44))
  (let ((let327 mul_n21))
  (let ((let328 (ff.mul let327 let1)))
  (let ((let329 mul_n30))
  (let ((let330 e_n4))
  (let ((let331 mul_n29))
  (let ((let332 (ff.mul let331 let1)))
  (let ((let333 (ff.add let332 let330 let329 let328 let326 let278 let325 let293)))
  (let ((let334 mul_n45))
  (let ((let335 (ff.mul let334 let333)))
  (let ((let336 (= let335 let322)))
  (let ((let337 (ff.mul let259 let1)))
  (let ((let338 (ff.add let337 let0)))
  (let ((let339 mul_n20))
  (let ((let340 (ff.mul let339 let338)))
  (let ((let341 (= let340 let334)))
  (let ((let342 (ff.mul let325 let1)))
  (let ((let343 (ff.mul let293 let106)))
  (let ((let344 (ff.mul let329 let1)))
  (let ((let345 (ff.mul let330 let1)))
  (let ((let346 (ff.add let331 let345 let344 let327 let291 let343 let292 let342 let277 let0)))
  (let ((let347 g_n11))
  (let ((let348 (ff.mul let347 let346)))
  (let ((let349 (= let348 let326)))
  (let ((let350 (ff.mul let320 let1)))
  (let ((let351 (ff.add let350 let0)))
  (let ((let352 (ff.mul let265 let106)))
  (let ((let353 (ff.add let352 let116)))
  (let ((let354 (ff.mul let353 let351)))
  (let ((let355 (= let354 let319)))
  (let ((let356 (ff.mul let305 let116)))
  (let ((let357 (ff.mul let299 let106)))
  (let ((let358 (ff.mul let308 let106)))
  (let ((let359 (ff.mul let310 let106)))
  (let ((let360 (ff.add let359 let358 let357 let356 let116)))
  (let ((let361 (ff.mul let360 let301)))
  (let ((let362 (= let361 let309)))
  (let ((let363 (ff.add let357 let116)))
  (let ((let364 (ff.mul let363 let273)))
  (let ((let365 (= let364 let300)))
  (let ((let366 (ff.add let330 let328 let325)))
  (let ((let367 (ff.mul let366 let268)))
  (let ((let368 (= let367 let271)))
  (let ((let369 c_n8))
  (let ((let370 (ff.mul let369 let1)))
  (let ((let371 (ff.add let370 let0)))
  (let ((let372 mul_n38))
  (let ((let373 (ff.mul let372 let371)))
  (let ((let374 (= let373 let268)))
  (let ((let375 mul_n37))
  (let ((let376 (ff.mul let375 let265)))
  (let ((let377 (= let376 let372)))
  (let ((let378 mul_n26))
  (let ((let379 (ff.mul let378 let1)))
  (let ((let380 (ff.add let379 let320 let294 let292 let291 let0)))
  (let ((let381 mul_n36))
  (let ((let382 (ff.mul let381 let380)))
  (let ((let383 (= let382 let375)))
  (let ((let384 (ff.mul let287 let1)))
  (let ((let385 (ff.add let384 let0)))
  (let ((let386 mul_n34))
  (let ((let387 (ff.mul let386 let385)))
  (let ((let388 (= let387 let246)))
  (let ((let389 (ff.add let291 let0)))
  (let ((let390 mul_n33))
  (let ((let391 (ff.mul let390 let389)))
  (let ((let392 (= let391 let386)))
  (let ((let393 (ff.mul let339 let1)))
  (let ((let394 (ff.add let393 let0)))
  (let ((let395 (ff.add let294 let0)))
  (let ((let396 (ff.mul let395 let394)))
  (let ((let397 (= let396 let390)))
  (let ((let398 (ff.mul let286 let339)))
  (let ((let399 (= let398 let242)))
  (let ((let400 (ff.add let325 let332 let328 let278 let293 let329 let330)))
  (let ((let401 mul_n17))
  (let ((let402 (ff.mul let401 let1)))
  (let ((let403 (ff.add let402 let0)))
  (let ((let404 (ff.mul let403 let400)))
  (let ((let405 (= let404 let286)))
  (let ((let406 (ff.add let345 let327 let342 let0)))
  (let ((let407 (ff.mul let331 let116)))
  (let ((let408 (ff.mul let277 let116)))
  (let ((let409 (ff.add let408 let407 let343)))
  (let ((let410 (ff.mul let409 let406)))
  (let ((let411 (= let410 let329)))
  (let ((let412 (ff.mul let277 let106)))
  (let ((let413 (ff.add let412 let116)))
  (let ((let414 (ff.mul let413 let293)))
  (let ((let415 (= let414 let331)))
  (let ((let416 mul_n27))
  (let ((let417 (ff.mul let416 let259)))
  (let ((let418 (= let417 let277)))
  (let ((let419 (ff.mul let380 let265)))
  (let ((let420 (= let419 let416)))
  (let ((let421 (ff.mul let320 let116)))
  (let ((let422 (ff.mul let421 let295)))
  (let ((let423 (= let422 let378)))
  (let ((let424 (ff.mul let293 let116)))
  (let ((let425 (ff.mul let424 let290)))
  (let ((let426 (= let425 let292)))
  (let ((let427 (ff.add let342 let0)))
  (let ((let428 mul_n23))
  (let ((let429 (ff.mul let428 let427)))
  (let ((let430 (= let429 let259)))
  (let ((let431 mul_n22))
  (let ((let432 (ff.mul let431 let406)))
  (let ((let433 (= let432 let428)))
  (let ((let434 (ff.mul let347 let1)))
  (let ((let435 (ff.add let434 let0)))
  (let ((let436 (ff.mul let385 let435)))
  (let ((let437 (= let436 let431)))
  (let ((let438 (ff.mul let330 let116)))
  (let ((let439 (ff.mul let438 let325)))
  (let ((let440 (= let439 let327)))
  (let ((let441 (ff.mul let315 let351)))
  (let ((let442 (= let441 let339)))
  (let ((let443 (ff.mul let308 let116)))
  (let ((let444 (ff.mul let310 let116)))
  (let ((let445 (ff.add let444 let443)))
  (let ((let446 (ff.mul let445 let299)))
  (let ((let447 (= let446 let305)))
  (let ((let448 (ff.mul let310 let1)))
  (let ((let449 l_n0))
  (let ((let450 (ff.add let449 let448)))
  (let ((let451 (ff.mul let403 let450)))
  (let ((let452 (= let451 let308)))
  (let ((let453 mul_n16))
  (let ((let454 (ff.mul let453 let435)))
  (let ((let455 (= let454 let401)))
  (let ((let456 mul_n15))
  (let ((let457 (ff.mul let456 let371)))
  (let ((let458 (= let457 let453)))
  (let ((let459 (ff.mul let449 let1)))
  (let ((let460 (ff.add let459 let0)))
  (let ((let461 mul_n14))
  (let ((let462 (ff.mul let461 let460)))
  (let ((let463 (= let462 let456)))
  (let ((let464 (ff.add let345 let0)))
  (let ((let465 mul_n13))
  (let ((let466 (ff.mul let465 let464)))
  (let ((let467 (= let466 let461)))
  (let ((let468 (ff.mul let299 let1)))
  (let ((let469 (ff.add let468 let0)))
  (let ((let470 (ff.add let448 let0)))
  (let ((let471 (ff.mul let470 let469)))
  (let ((let472 (= let471 let465)))
  (let ((let473 (and let472 let467 let463 let458 let455 let452 let447 let442 let440 let437 let433 let430 let426 let423 let420 let418 let415 let411 let405 let399 let397 let392 let388 let383 let377 let374 let368 let365 let362 let355 let349 let341 let336 let324 let318 let314 let304 let298 let289 let285 let282 let276 let270 let264 let255 let249 let245)))
  (let ((let474 (= let239 let2)))
  (let ((let475 (not let474)))
  (let ((let476 (= let290 let53)))
  (let ((let477 (= let449 let214)))
  (let ((let478 (= let369 let134)))
  (let ((let479 (= let310 let73)))
  (let ((let480 (= let287 let50)))
  (let ((let481 (= let293 let56)))
  (let ((let482 (= let330 let93)))
  (let ((let483 (= let265 let28)))
  (let ((let484 (= let320 let83)))
  (let ((let485 (= let347 let111)))
  (let ((let486 (= let299 let62)))
  (let ((let487 (= let325 let88)))
  (let ((let488 (and let487 let486 let485 let484 let483 let482 let481 let480 let479 let478 let477 let476)))
  (let ((let489 (and let488 let475 let473 let238)))
  let489
))))))))))))))))))))))))))))))))))))))))))))))))))))))))))))))))))))))))))))))))))))))))))))))))))))))))))))))))))))))))))))))))))))))))))))))))))))))))))))))))))))))))))))))))))))))))))))))))))))))))))))))))))))))))))))))))))))))))))))))))))))))))))))))))))))))))))))))))))))))))))))))))))))))))))))))))))))))))))))))))))))))))))))))))))))))))))))))))))))))))))))))))))))))))))))))))))))))))))))))))))))))))))))))))))))))))))))))))))))))))))))))))))))))))))))))))))))))))))))))))))))))))))
)
(check-sat)
